10 6 15 4 18 14 11 17 8 16 9 19 12 0 1 5 2 7 3 13  
10 6 15 4 18 14 11 17 8 16 9 19 12 0 1 5 7 13 2 3  
10 6 15 4 11 14 5 9 8 19 12 17 1 0 7 18 13 2 16 3  
10 6 15 4 11 14 5 9 8 19 12 17 1 0 18 13 7 16 2 3  
10 6 15 4 18 14 11 17 8 16 9 19 12 0 1 5 7 13 2 3  
10 6 15 4 18 14 11 17 8 16 9 19 12 0 1 5 7 13 2 3  
10 6 15 4 18 14 11 17 8 16 9 19 12 0 1 5 2 7 3 13  
10 6 15 4 14 11 5 9 8 18 19 16 0 13 12 17 1 7 2 3  
10 6 15 4 14 11 5 9 8 19 12 17 1 0 18 7 13 2 16 3  
10 6 15 4 14 11 5 9 8 18 19 12 17 1 0 13 7 2 16 3  
